gr229_gen3_m4 - First point and last point of each route is the depot

1, 31, 33, 34, 35, 42, 43, 44, 45, 49, 187, 53, 51, 50, 48, 46, 47, 52, 191, 192, 193, 194, 196, 195, 197, 198, 199, 201, 200, 190, 189, 188, 186, 185, 181, 183, 184, 182, 180, 173, 172, 174, 169, 128, 127, 108, 110, 109, 104, 105, 106, 76, 75, 73, 74, 72, 71, 70, 66, 69, 68, 67, 65, 64, 63, 62, 60, 59, 58, 57, 61, 56, 22, 21, 20, 236

2, 16, 17, 18, 39, 38, 40, 98, 99, 101, 100, 107, 111, 112, 113, 114, 129, 130, 131, 133, 134, 136, 175, 166, 176, 168, 167, 165, 164, 163, 162, 159, 160, 161, 204, 206, 205, 224, 223, 216, 217, 218, 219, 222, 225, 226, 203, 202, 179, 178, 177, 171, 170, 41, 37, 36, 30, 29, 5, 235

	
3, 6, 11, 10, 12, 13, 14, 54, 55, 232, 231, 230, 229, 9, 8, 7, 234


4, 24, 25, 28, 88, 89, 92, 93, 94, 95, 96, 97, 103, 102, 115, 116, 119, 120, 117, 132, 141, 135, 137, 138, 140, 139, 155, 156, 157, 154, 158, 153, 207, 215, 214, 213, 212, 211, 210, 209, 208, 152, 151, 150, 149, 148, 147, 146, 144, 143, 142, 145, 126, 125, 124, 123, 122, 121, 118, 77, 78, 79, 80, 81, 82, 91, 83, 90, 84, 85, 86, 87, 27, 26, 23, 19, 15, 233
